73
150
120	1
119	4
118	1
117	4
116	5
115	2
114	2
113	1
111	5
110	4
109	4
108	2
106	1
105	4
104	3
103	3
101	5
100	1
99	2
97	1
96	4
95	1
93	2
92	1
91	2
90	1
89	1
87	4
86	1
84	2
83	2
82	3
81	3
80	3
78	2
77	3
74	3
73	3
72	2
71	4
68	3
67	4
66	2
65	3
63	1
61	1
60	2
59	3
57	5
56	6
54	3
53	3
52	6
51	3
50	2
48	5
47	2
46	5
45	1
44	4
43	4
42	3
41	2
40	3
39	1
38	1
37	4
36	4
34	4
33	2
32	2
31	1
30	3
